c A SAT instance generated from a 3-CNF formula that had 30 clauses and 5 variables
p cnf 5 30
-2 5 -1 0
4 -1 3 0
5 3 2 0
5 -1 4 0
-2 -3 -4 0
4 2 -5 0
-2 -1 4 0
2 -3 5 0
5 1 -4 0
-1 -5 2 0
-5 -3 -2 0
-2 4 -5 0
5 -2 -4 0
-2 3 -4 0
1 -2 -5 0
1 2 4 0
5 -1 -2 0
-3 -1 2 0
4 -5 1 0
-2 -3 -4 0
5 -2 3 0
3 -2 1 0
-1 -4 2 0
-4 -1 -2 0
2 -3 1 0
4 -2 -5 0
-2 -5 1 0
3 4 2 0
-4 1 2 0
-2 1 5 0
%
0

35 80 100 83 84
